(set-info :origin "Verification conditions for the caml program
  
  let rec bot _ = bot ()
  let fail _ = assert false
  
     let rec c1_COEFFICIENT_1088 = 0
     let rec c0_COEFFICIENT_1087 = 0
     let id_1030 set_flag_f_1187 s_f_n_1182 x_1031 = x_1031
  
     let app_1032 x_DO_NOT_CARE_1219 x_DO_NOT_CARE_1220 h_EXPARAM_1090 x_DO_NOT_CARE_1217 x_DO_NOT_CARE_1218 h_1033 set_flag_f_1187 s_f_n_1182 v_1034 =
       h_1033 set_flag_f_1187 s_f_n_1182 () set_flag_f_1187 s_f_n_1182 v_1034
  
     let rec f_1035 f_without_checking_1197 x_DO_NOT_CARE_1199 x_DO_NOT_CARE_1200 n_1036 prev_set_flag_f_1186 s_prev_f_n_1184 u_1037 =
       let u  =if prev_set_flag_f_1186 then
                let u_9957 = fail ()
                in
                  bot()
               else () in
              f_without_checking_1197 x_DO_NOT_CARE_1199 x_DO_NOT_CARE_1200
                n_1036 prev_set_flag_f_1186 s_prev_f_n_1184 u_1037
  
     let rec f_without_checking_1197 x_DO_NOT_CARE_1215 x_DO_NOT_CARE_1216 n_1036 set_flag_f_1187 s_f_n_1182 u_1037 =
       let set_flag_f_1187 = true
       in
       let s_f_n_1182 = n_1036
       in
         if n_1036 > 0 then
           app_1032 set_flag_f_1187 s_f_n_1182
             ((c0_COEFFICIENT_1087 * n_1036) + c1_COEFFICIENT_1088)
             set_flag_f_1187 s_f_n_1182
             (f_1035 f_without_checking_1197 set_flag_f_1187 s_f_n_1182 (n_1036 - 1))
         else
           id_1030
  
     let main r =
       let set_flag_f_1187 = false in
       let s_f_n_1182 = 0 in
       f_without_checking_1197 set_flag_f_1187 s_f_n_1182 r
         set_flag_f_1187 s_f_n_1182 () set_flag_f_1187 s_f_n_1182 ()
")

(set-logic HORN)

(declare-fun |fail$unknown:50|
  ( Int Int ) Bool
)

(declare-fun |f_without_checking_1197$unknown:48|
  ( Int Int Int Int Int Int Int Int Int Int ) Bool
)

(declare-fun |f_without_checking_1197$unknown:47|
  ( Int Int Int Int Int Int Int Int Int ) Bool
)

(declare-fun |bot$unknown:18|
  ( Int Int ) Bool
)

(assert
  (forall ( (|$V-reftype:30| Int) (|$alpha-24:x_DO_NOT_CARE_1215| Int) (|$alpha-25:x_DO_NOT_CARE_1216| Int) (|$alpha-27:set_flag_f_1187| Int) (|$alpha-28:s_f_n_1182| Int) (|$alpha-29:u_1037| Int) (|$cond-alpha-rename:1950| Int) (|$cond-alpha-rename:1951| Int) (|$cond-alpha-rename:1952| Int) (|$cond-alpha-rename:1954| Int) (|$cond-alpha-rename:1955| Int) (|$cond-alpha-rename:1956| Int) (|$cond-alpha-rename:1968| Int) (|$cond-alpha-rename:1969| Int) (|$cond-alpha-rename:1971| Int) (|$cond-alpha-rename:1972| Int) (|$cond-alpha-rename:1973| Int) (|$cond-alpha-rename:1980| Int) (|$cond-alpha-rename:1981| Int) (|$cond-alpha-rename:1982| Int) (|$cond-alpha-rename:1984| Int) (|$cond-alpha-rename:1985| Int) (|$cond-alpha-rename:1986| Int) (|$cond-alpha-rename:1993| Int) (|$cond-alpha-rename:1994| Int) (|$cond-alpha-rename:1999| Int) (|$cond-alpha-rename:2001| Int) (|$cond-alpha-rename:2002| Int) (|$cond-alpha-rename:2007| Int) (|$cond-alpha-rename:2008| Int) (|$cond-alpha-rename:2009| Int) (|$cond-alpha-rename:2011| Int) (|$cond-alpha-rename:2012| Int) (|$cond-alpha-rename:2013| Int) (|$cond-alpha-rename:2025| Int) (|$cond-alpha-rename:2026| Int) (|$cond-alpha-rename:2028| Int) (|$cond-alpha-rename:2029| Int) (|$cond-alpha-rename:2030| Int) (|$cond-alpha-rename:2037| Int) (|$cond-alpha-rename:2038| Int) (|$cond-alpha-rename:2039| Int) (|$cond-alpha-rename:2040| Int) (|$cond-alpha-rename:2041| Int) (|$cond-alpha-rename:2042| Int) (|$cond-alpha-rename:2043| Int) (|$cond-alpha-rename:2045| Int) (|$cond-alpha-rename:2047| Int) (|$cond-alpha-rename:278| Int) (|$cond-alpha-rename:279| Int) (|$cond-alpha-rename:281| Int) (|$cond-alpha-rename:282| Int) (|$cond-alpha-rename:283| Int) (|$cond-alpha-rename:290| Int) (|$cond-alpha-rename:291| Int) (|$cond-alpha-rename:293| Int) (|$cond-alpha-rename:294| Int) (|$cond-alpha-rename:295| Int) (|$cond-alpha-rename:302| Int) (|$cond-alpha-rename:380| Int) (|$cond-alpha-rename:381| Int) (|$cond-alpha-rename:382| Int) (|$cond-alpha-rename:384| Int) (|$cond-alpha-rename:385| Int) (|$cond-alpha-rename:386| Int) )
    (=>
      ( and (> |$cond-alpha-rename:2040| 0) (= (- |$cond-alpha-rename:2040| 1) (- |$cond-alpha-rename:2040| 1)) (= 1 1) (= 1 1) (= 1 1) (= 1 1) (= 1 1) (= 1 1) (= 1 1) (= 0 0) (= (+ (* 0 |$cond-alpha-rename:2040|) 0) (+ (* 0 |$cond-alpha-rename:2040|) 0)) (= (+ (* 0 |$cond-alpha-rename:2040|) 0) (+ (* 0 |$cond-alpha-rename:2040|) 0)) (= (+ (* 0 |$cond-alpha-rename:2040|) 0) (+ (* 0 |$cond-alpha-rename:2040|) 0)) (= (+ (* 0 |$cond-alpha-rename:2040|) 0) (+ (* 0 |$cond-alpha-rename:2040|) 0)) (= (+ (* 0 |$cond-alpha-rename:2040|) 0) (+ (* 0 |$cond-alpha-rename:2040|) 0)) (= (+ (* 0 |$cond-alpha-rename:2040|) 0) (+ (* 0 |$cond-alpha-rename:2040|) 0)) (not (= 0 |$cond-alpha-rename:1993|)) (> |$cond-alpha-rename:2040| 0) (> |$cond-alpha-rename:2040| 0) (> |$cond-alpha-rename:2040| 0) (> |$cond-alpha-rename:2002| 0) (> |$cond-alpha-rename:2040| 0) (> |$cond-alpha-rename:2040| 0) (> |$cond-alpha-rename:2040| 0) (> |$cond-alpha-rename:2040| 0) (> |$cond-alpha-rename:2040| 0) (> |$cond-alpha-rename:2040| 0) (> |$cond-alpha-rename:2040| 0) (|fail$unknown:50| |$cond-alpha-rename:2047| 1) (|fail$unknown:50| |$cond-alpha-rename:2001| 1) (|f_without_checking_1197$unknown:48| |$cond-alpha-rename:302| |$V-reftype:30| |$cond-alpha-rename:1994| |$cond-alpha-rename:1993| 1 |$cond-alpha-rename:1994| |$cond-alpha-rename:1993| (- |$cond-alpha-rename:2040| 1) |$cond-alpha-rename:2040| 1) (|f_without_checking_1197$unknown:47| |$cond-alpha-rename:380| |$cond-alpha-rename:1994| |$cond-alpha-rename:1993| |$cond-alpha-rename:386| |$cond-alpha-rename:385| |$cond-alpha-rename:384| |$cond-alpha-rename:2040| |$cond-alpha-rename:382| |$cond-alpha-rename:381|) (|f_without_checking_1197$unknown:47| |$cond-alpha-rename:2037| |$cond-alpha-rename:1994| |$cond-alpha-rename:1993| |$cond-alpha-rename:2043| |$cond-alpha-rename:2042| |$cond-alpha-rename:2041| |$cond-alpha-rename:2040| |$cond-alpha-rename:2039| |$cond-alpha-rename:2038|) (|f_without_checking_1197$unknown:47| |$cond-alpha-rename:2007| |$cond-alpha-rename:1994| |$cond-alpha-rename:1993| |$cond-alpha-rename:2013| |$cond-alpha-rename:2012| |$cond-alpha-rename:2011| |$cond-alpha-rename:2040| |$cond-alpha-rename:2009| |$cond-alpha-rename:2008|) (|f_without_checking_1197$unknown:47| |$cond-alpha-rename:1980| |$cond-alpha-rename:1994| |$cond-alpha-rename:1993| |$cond-alpha-rename:1986| |$cond-alpha-rename:1985| |$cond-alpha-rename:1984| |$cond-alpha-rename:2040| |$cond-alpha-rename:1982| |$cond-alpha-rename:1981|) (|f_without_checking_1197$unknown:47| |$cond-alpha-rename:1950| |$cond-alpha-rename:1994| |$cond-alpha-rename:1993| |$cond-alpha-rename:1956| |$cond-alpha-rename:1955| |$cond-alpha-rename:1954| |$cond-alpha-rename:2040| |$cond-alpha-rename:1952| |$cond-alpha-rename:1951|) (|f_without_checking_1197$unknown:47| |$V-reftype:30| |$cond-alpha-rename:1994| |$cond-alpha-rename:1993| |$cond-alpha-rename:295| |$cond-alpha-rename:294| |$cond-alpha-rename:293| |$cond-alpha-rename:2040| |$cond-alpha-rename:291| |$cond-alpha-rename:290|) (|f_without_checking_1197$unknown:47| |$V-reftype:30| |$cond-alpha-rename:1994| |$cond-alpha-rename:1993| |$cond-alpha-rename:283| |$cond-alpha-rename:282| |$cond-alpha-rename:281| |$cond-alpha-rename:2040| |$cond-alpha-rename:279| |$cond-alpha-rename:278|) (|f_without_checking_1197$unknown:47| |$V-reftype:30| |$cond-alpha-rename:1994| |$cond-alpha-rename:1993| |$alpha-29:u_1037| |$alpha-28:s_f_n_1182| |$alpha-27:set_flag_f_1187| |$cond-alpha-rename:2040| |$alpha-25:x_DO_NOT_CARE_1216| |$alpha-24:x_DO_NOT_CARE_1215|) (|f_without_checking_1197$unknown:47| |$V-reftype:30| |$cond-alpha-rename:1994| |$cond-alpha-rename:1993| |$cond-alpha-rename:1973| |$cond-alpha-rename:1972| |$cond-alpha-rename:1971| |$cond-alpha-rename:2040| |$cond-alpha-rename:1969| |$cond-alpha-rename:1968|) (|f_without_checking_1197$unknown:47| |$V-reftype:30| |$cond-alpha-rename:1994| |$cond-alpha-rename:1993| |$cond-alpha-rename:2030| |$cond-alpha-rename:2029| |$cond-alpha-rename:2028| |$cond-alpha-rename:2040| |$cond-alpha-rename:2026| |$cond-alpha-rename:2025|) (|bot$unknown:18| |$cond-alpha-rename:2045| 1) (|bot$unknown:18| |$cond-alpha-rename:1999| 1) )
      (|f_without_checking_1197$unknown:48| |$cond-alpha-rename:302| |$V-reftype:30| |$cond-alpha-rename:1994| |$cond-alpha-rename:1993| |$alpha-29:u_1037| |$alpha-28:s_f_n_1182| |$alpha-27:set_flag_f_1187| |$cond-alpha-rename:2040| |$alpha-25:x_DO_NOT_CARE_1216| |$alpha-24:x_DO_NOT_CARE_1215|)
    )
  )
)
(assert
  (forall ( (|$V-reftype:30| Int) (|$alpha-24:x_DO_NOT_CARE_1215| Int) (|$alpha-25:x_DO_NOT_CARE_1216| Int) (|$alpha-27:set_flag_f_1187| Int) (|$alpha-28:s_f_n_1182| Int) (|$alpha-29:u_1037| Int) (|$cond-alpha-rename:2061| Int) (|$cond-alpha-rename:2062| Int) (|$cond-alpha-rename:2063| Int) (|$cond-alpha-rename:2065| Int) (|$cond-alpha-rename:2066| Int) (|$cond-alpha-rename:2067| Int) (|$cond-alpha-rename:2079| Int) (|$cond-alpha-rename:2080| Int) (|$cond-alpha-rename:2082| Int) (|$cond-alpha-rename:2083| Int) (|$cond-alpha-rename:2084| Int) (|$cond-alpha-rename:2091| Int) (|$cond-alpha-rename:2092| Int) (|$cond-alpha-rename:2093| Int) (|$cond-alpha-rename:2095| Int) (|$cond-alpha-rename:2096| Int) (|$cond-alpha-rename:2097| Int) (|$cond-alpha-rename:2104| Int) (|$cond-alpha-rename:2105| Int) (|$cond-alpha-rename:2109| Int) (|$cond-alpha-rename:2114| Int) (|$cond-alpha-rename:2115| Int) (|$cond-alpha-rename:2116| Int) (|$cond-alpha-rename:2118| Int) (|$cond-alpha-rename:2119| Int) (|$cond-alpha-rename:2120| Int) (|$cond-alpha-rename:2132| Int) (|$cond-alpha-rename:2133| Int) (|$cond-alpha-rename:2135| Int) (|$cond-alpha-rename:2136| Int) (|$cond-alpha-rename:2137| Int) (|$cond-alpha-rename:2144| Int) (|$cond-alpha-rename:2145| Int) (|$cond-alpha-rename:2146| Int) (|$cond-alpha-rename:2147| Int) (|$cond-alpha-rename:2148| Int) (|$cond-alpha-rename:2149| Int) (|$cond-alpha-rename:2150| Int) (|$cond-alpha-rename:2152| Int) (|$cond-alpha-rename:2154| Int) (|$cond-alpha-rename:278| Int) (|$cond-alpha-rename:279| Int) (|$cond-alpha-rename:281| Int) (|$cond-alpha-rename:282| Int) (|$cond-alpha-rename:283| Int) (|$cond-alpha-rename:290| Int) (|$cond-alpha-rename:291| Int) (|$cond-alpha-rename:293| Int) (|$cond-alpha-rename:294| Int) (|$cond-alpha-rename:295| Int) (|$cond-alpha-rename:302| Int) (|$cond-alpha-rename:380| Int) (|$cond-alpha-rename:381| Int) (|$cond-alpha-rename:382| Int) (|$cond-alpha-rename:384| Int) (|$cond-alpha-rename:385| Int) (|$cond-alpha-rename:386| Int) )
    (=>
      ( and (> |$cond-alpha-rename:2147| 0) (= (- |$cond-alpha-rename:2147| 1) (- |$cond-alpha-rename:2147| 1)) (= 1 1) (= 1 1) (= 1 1) (= 1 1) (= 1 1) (= 1 1) (= 1 1) (= 0 0) (= (+ (* 0 |$cond-alpha-rename:2147|) 0) (+ (* 0 |$cond-alpha-rename:2147|) 0)) (= (+ (* 0 |$cond-alpha-rename:2147|) 0) (+ (* 0 |$cond-alpha-rename:2147|) 0)) (= (+ (* 0 |$cond-alpha-rename:2147|) 0) (+ (* 0 |$cond-alpha-rename:2147|) 0)) (= (+ (* 0 |$cond-alpha-rename:2147|) 0) (+ (* 0 |$cond-alpha-rename:2147|) 0)) (= (+ (* 0 |$cond-alpha-rename:2147|) 0) (+ (* 0 |$cond-alpha-rename:2147|) 0)) (= (+ (* 0 |$cond-alpha-rename:2147|) 0) (+ (* 0 |$cond-alpha-rename:2147|) 0)) (not (not (= 0 |$cond-alpha-rename:2104|))) (not (= 0 |$cond-alpha-rename:2104|)) (> |$cond-alpha-rename:2147| 0) (> |$cond-alpha-rename:2147| 0) (> |$cond-alpha-rename:2147| 0) (> |$cond-alpha-rename:2109| 0) (> |$cond-alpha-rename:2147| 0) (> |$cond-alpha-rename:2147| 0) (> |$cond-alpha-rename:2147| 0) (> |$cond-alpha-rename:2147| 0) (> |$cond-alpha-rename:2147| 0) (> |$cond-alpha-rename:2147| 0) (> |$cond-alpha-rename:2147| 0) (|fail$unknown:50| |$cond-alpha-rename:2154| 1) (|f_without_checking_1197$unknown:48| |$cond-alpha-rename:302| |$V-reftype:30| |$cond-alpha-rename:2105| |$cond-alpha-rename:2104| 1 |$cond-alpha-rename:2105| |$cond-alpha-rename:2104| (- |$cond-alpha-rename:2147| 1) |$cond-alpha-rename:2147| 1) (|f_without_checking_1197$unknown:47| |$cond-alpha-rename:380| |$cond-alpha-rename:2105| |$cond-alpha-rename:2104| |$cond-alpha-rename:386| |$cond-alpha-rename:385| |$cond-alpha-rename:384| |$cond-alpha-rename:2147| |$cond-alpha-rename:382| |$cond-alpha-rename:381|) (|f_without_checking_1197$unknown:47| |$cond-alpha-rename:2144| |$cond-alpha-rename:2105| |$cond-alpha-rename:2104| |$cond-alpha-rename:2150| |$cond-alpha-rename:2149| |$cond-alpha-rename:2148| |$cond-alpha-rename:2147| |$cond-alpha-rename:2146| |$cond-alpha-rename:2145|) (|f_without_checking_1197$unknown:47| |$cond-alpha-rename:2114| |$cond-alpha-rename:2105| |$cond-alpha-rename:2104| |$cond-alpha-rename:2120| |$cond-alpha-rename:2119| |$cond-alpha-rename:2118| |$cond-alpha-rename:2147| |$cond-alpha-rename:2116| |$cond-alpha-rename:2115|) (|f_without_checking_1197$unknown:47| |$cond-alpha-rename:2091| |$cond-alpha-rename:2105| |$cond-alpha-rename:2104| |$cond-alpha-rename:2097| |$cond-alpha-rename:2096| |$cond-alpha-rename:2095| |$cond-alpha-rename:2147| |$cond-alpha-rename:2093| |$cond-alpha-rename:2092|) (|f_without_checking_1197$unknown:47| |$cond-alpha-rename:2061| |$cond-alpha-rename:2105| |$cond-alpha-rename:2104| |$cond-alpha-rename:2067| |$cond-alpha-rename:2066| |$cond-alpha-rename:2065| |$cond-alpha-rename:2147| |$cond-alpha-rename:2063| |$cond-alpha-rename:2062|) (|f_without_checking_1197$unknown:47| |$V-reftype:30| |$cond-alpha-rename:2105| |$cond-alpha-rename:2104| |$cond-alpha-rename:295| |$cond-alpha-rename:294| |$cond-alpha-rename:293| |$cond-alpha-rename:2147| |$cond-alpha-rename:291| |$cond-alpha-rename:290|) (|f_without_checking_1197$unknown:47| |$V-reftype:30| |$cond-alpha-rename:2105| |$cond-alpha-rename:2104| |$cond-alpha-rename:283| |$cond-alpha-rename:282| |$cond-alpha-rename:281| |$cond-alpha-rename:2147| |$cond-alpha-rename:279| |$cond-alpha-rename:278|) (|f_without_checking_1197$unknown:47| |$V-reftype:30| |$cond-alpha-rename:2105| |$cond-alpha-rename:2104| |$alpha-29:u_1037| |$alpha-28:s_f_n_1182| |$alpha-27:set_flag_f_1187| |$cond-alpha-rename:2147| |$alpha-25:x_DO_NOT_CARE_1216| |$alpha-24:x_DO_NOT_CARE_1215|) (|f_without_checking_1197$unknown:47| |$V-reftype:30| |$cond-alpha-rename:2105| |$cond-alpha-rename:2104| |$cond-alpha-rename:2084| |$cond-alpha-rename:2083| |$cond-alpha-rename:2082| |$cond-alpha-rename:2147| |$cond-alpha-rename:2080| |$cond-alpha-rename:2079|) (|f_without_checking_1197$unknown:47| |$V-reftype:30| |$cond-alpha-rename:2105| |$cond-alpha-rename:2104| |$cond-alpha-rename:2137| |$cond-alpha-rename:2136| |$cond-alpha-rename:2135| |$cond-alpha-rename:2147| |$cond-alpha-rename:2133| |$cond-alpha-rename:2132|) (|bot$unknown:18| |$cond-alpha-rename:2152| 1) )
      (|f_without_checking_1197$unknown:48| |$cond-alpha-rename:302| |$V-reftype:30| |$cond-alpha-rename:2105| |$cond-alpha-rename:2104| |$alpha-29:u_1037| |$alpha-28:s_f_n_1182| |$alpha-27:set_flag_f_1187| |$cond-alpha-rename:2147| |$alpha-25:x_DO_NOT_CARE_1216| |$alpha-24:x_DO_NOT_CARE_1215|)
    )
  )
)
(assert
  (forall ( (|$V-reftype:30| Int) (|$alpha-24:x_DO_NOT_CARE_1215| Int) (|$alpha-25:x_DO_NOT_CARE_1216| Int) (|$alpha-27:set_flag_f_1187| Int) (|$alpha-28:s_f_n_1182| Int) (|$alpha-29:u_1037| Int) (|$cond-alpha-rename:2157| Int) (|$cond-alpha-rename:2158| Int) (|$cond-alpha-rename:2160| Int) (|$cond-alpha-rename:2161| Int) (|$cond-alpha-rename:2162| Int) (|$cond-alpha-rename:2169| Int) (|$cond-alpha-rename:2170| Int) (|$cond-alpha-rename:2171| Int) (|$cond-alpha-rename:2173| Int) (|$cond-alpha-rename:2174| Int) (|$cond-alpha-rename:2175| Int) (|$cond-alpha-rename:2189| Int) (|$cond-alpha-rename:2190| Int) (|$cond-alpha-rename:2191| Int) (|$cond-alpha-rename:2193| Int) (|$cond-alpha-rename:2194| Int) (|$cond-alpha-rename:2195| Int) (|$cond-alpha-rename:2207| Int) (|$cond-alpha-rename:2208| Int) (|$cond-alpha-rename:2210| Int) (|$cond-alpha-rename:2211| Int) (|$cond-alpha-rename:2212| Int) (|$cond-alpha-rename:2219| Int) (|$cond-alpha-rename:2220| Int) (|$cond-alpha-rename:2221| Int) (|$cond-alpha-rename:2223| Int) (|$cond-alpha-rename:2224| Int) (|$cond-alpha-rename:2225| Int) (|$cond-alpha-rename:2232| Int) (|$cond-alpha-rename:2233| Int) (|$cond-alpha-rename:2238| Int) (|$cond-alpha-rename:2240| Int) (|$cond-alpha-rename:2241| Int) (|$cond-alpha-rename:2246| Int) (|$cond-alpha-rename:2247| Int) (|$cond-alpha-rename:2248| Int) (|$cond-alpha-rename:2249| Int) (|$cond-alpha-rename:2250| Int) (|$cond-alpha-rename:2251| Int) (|$cond-alpha-rename:2252| Int) (|$cond-alpha-rename:278| Int) (|$cond-alpha-rename:279| Int) (|$cond-alpha-rename:281| Int) (|$cond-alpha-rename:282| Int) (|$cond-alpha-rename:283| Int) (|$cond-alpha-rename:290| Int) (|$cond-alpha-rename:291| Int) (|$cond-alpha-rename:293| Int) (|$cond-alpha-rename:294| Int) (|$cond-alpha-rename:295| Int) (|$cond-alpha-rename:302| Int) (|$cond-alpha-rename:380| Int) (|$cond-alpha-rename:381| Int) (|$cond-alpha-rename:382| Int) (|$cond-alpha-rename:384| Int) (|$cond-alpha-rename:385| Int) (|$cond-alpha-rename:386| Int) )
    (=>
      ( and (> |$cond-alpha-rename:2249| 0) (= (- |$cond-alpha-rename:2249| 1) (- |$cond-alpha-rename:2249| 1)) (= 1 1) (= 1 1) (= 1 1) (= 1 1) (= 1 1) (= 1 1) (= 1 1) (= 0 0) (= (+ (* 0 |$cond-alpha-rename:2249|) 0) (+ (* 0 |$cond-alpha-rename:2249|) 0)) (= (+ (* 0 |$cond-alpha-rename:2249|) 0) (+ (* 0 |$cond-alpha-rename:2249|) 0)) (= (+ (* 0 |$cond-alpha-rename:2249|) 0) (+ (* 0 |$cond-alpha-rename:2249|) 0)) (= (+ (* 0 |$cond-alpha-rename:2249|) 0) (+ (* 0 |$cond-alpha-rename:2249|) 0)) (= (+ (* 0 |$cond-alpha-rename:2249|) 0) (+ (* 0 |$cond-alpha-rename:2249|) 0)) (= (+ (* 0 |$cond-alpha-rename:2249|) 0) (+ (* 0 |$cond-alpha-rename:2249|) 0)) (not (not (= 0 |$cond-alpha-rename:2232|))) (not (= 0 |$cond-alpha-rename:2232|)) (> |$cond-alpha-rename:2249| 0) (> |$cond-alpha-rename:2249| 0) (> |$cond-alpha-rename:2241| 0) (> |$cond-alpha-rename:2249| 0) (> |$cond-alpha-rename:2249| 0) (> |$cond-alpha-rename:2249| 0) (> |$cond-alpha-rename:2249| 0) (> |$cond-alpha-rename:2249| 0) (> |$cond-alpha-rename:2249| 0) (> |$cond-alpha-rename:2249| 0) (> |$cond-alpha-rename:2249| 0) (|fail$unknown:50| |$cond-alpha-rename:2240| 1) (|f_without_checking_1197$unknown:48| |$cond-alpha-rename:302| |$V-reftype:30| |$cond-alpha-rename:2233| |$cond-alpha-rename:2232| 1 |$cond-alpha-rename:2233| |$cond-alpha-rename:2232| (- |$cond-alpha-rename:2249| 1) |$cond-alpha-rename:2249| 1) (|f_without_checking_1197$unknown:47| |$cond-alpha-rename:380| |$cond-alpha-rename:2233| |$cond-alpha-rename:2232| |$cond-alpha-rename:386| |$cond-alpha-rename:385| |$cond-alpha-rename:384| |$cond-alpha-rename:2249| |$cond-alpha-rename:382| |$cond-alpha-rename:381|) (|f_without_checking_1197$unknown:47| |$cond-alpha-rename:2246| |$cond-alpha-rename:2233| |$cond-alpha-rename:2232| |$cond-alpha-rename:2252| |$cond-alpha-rename:2251| |$cond-alpha-rename:2250| |$cond-alpha-rename:2249| |$cond-alpha-rename:2248| |$cond-alpha-rename:2247|) (|f_without_checking_1197$unknown:47| |$cond-alpha-rename:2219| |$cond-alpha-rename:2233| |$cond-alpha-rename:2232| |$cond-alpha-rename:2225| |$cond-alpha-rename:2224| |$cond-alpha-rename:2223| |$cond-alpha-rename:2249| |$cond-alpha-rename:2221| |$cond-alpha-rename:2220|) (|f_without_checking_1197$unknown:47| |$cond-alpha-rename:2189| |$cond-alpha-rename:2233| |$cond-alpha-rename:2232| |$cond-alpha-rename:2195| |$cond-alpha-rename:2194| |$cond-alpha-rename:2193| |$cond-alpha-rename:2249| |$cond-alpha-rename:2191| |$cond-alpha-rename:2190|) (|f_without_checking_1197$unknown:47| |$cond-alpha-rename:2169| |$cond-alpha-rename:2233| |$cond-alpha-rename:2232| |$cond-alpha-rename:2175| |$cond-alpha-rename:2174| |$cond-alpha-rename:2173| |$cond-alpha-rename:2249| |$cond-alpha-rename:2171| |$cond-alpha-rename:2170|) (|f_without_checking_1197$unknown:47| |$V-reftype:30| |$cond-alpha-rename:2233| |$cond-alpha-rename:2232| |$cond-alpha-rename:295| |$cond-alpha-rename:294| |$cond-alpha-rename:293| |$cond-alpha-rename:2249| |$cond-alpha-rename:291| |$cond-alpha-rename:290|) (|f_without_checking_1197$unknown:47| |$V-reftype:30| |$cond-alpha-rename:2233| |$cond-alpha-rename:2232| |$cond-alpha-rename:283| |$cond-alpha-rename:282| |$cond-alpha-rename:281| |$cond-alpha-rename:2249| |$cond-alpha-rename:279| |$cond-alpha-rename:278|) (|f_without_checking_1197$unknown:47| |$V-reftype:30| |$cond-alpha-rename:2233| |$cond-alpha-rename:2232| |$alpha-29:u_1037| |$alpha-28:s_f_n_1182| |$alpha-27:set_flag_f_1187| |$cond-alpha-rename:2249| |$alpha-25:x_DO_NOT_CARE_1216| |$alpha-24:x_DO_NOT_CARE_1215|) (|f_without_checking_1197$unknown:47| |$V-reftype:30| |$cond-alpha-rename:2233| |$cond-alpha-rename:2232| |$cond-alpha-rename:2212| |$cond-alpha-rename:2211| |$cond-alpha-rename:2210| |$cond-alpha-rename:2249| |$cond-alpha-rename:2208| |$cond-alpha-rename:2207|) (|f_without_checking_1197$unknown:47| |$V-reftype:30| |$cond-alpha-rename:2233| |$cond-alpha-rename:2232| |$cond-alpha-rename:2162| |$cond-alpha-rename:2161| |$cond-alpha-rename:2160| |$cond-alpha-rename:2249| |$cond-alpha-rename:2158| |$cond-alpha-rename:2157|) (|bot$unknown:18| |$cond-alpha-rename:2238| 1) )
      (|f_without_checking_1197$unknown:48| |$cond-alpha-rename:302| |$V-reftype:30| |$cond-alpha-rename:2233| |$cond-alpha-rename:2232| |$alpha-29:u_1037| |$alpha-28:s_f_n_1182| |$alpha-27:set_flag_f_1187| |$cond-alpha-rename:2249| |$alpha-25:x_DO_NOT_CARE_1216| |$alpha-24:x_DO_NOT_CARE_1215|)
    )
  )
)
(assert
  (forall ( (|$V-reftype:30| Int) (|$alpha-24:x_DO_NOT_CARE_1215| Int) (|$alpha-25:x_DO_NOT_CARE_1216| Int) (|$alpha-27:set_flag_f_1187| Int) (|$alpha-28:s_f_n_1182| Int) (|$alpha-29:u_1037| Int) (|$cond-alpha-rename:2264| Int) (|$cond-alpha-rename:2265| Int) (|$cond-alpha-rename:2267| Int) (|$cond-alpha-rename:2268| Int) (|$cond-alpha-rename:2269| Int) (|$cond-alpha-rename:2276| Int) (|$cond-alpha-rename:2277| Int) (|$cond-alpha-rename:2278| Int) (|$cond-alpha-rename:2280| Int) (|$cond-alpha-rename:2281| Int) (|$cond-alpha-rename:2282| Int) (|$cond-alpha-rename:2296| Int) (|$cond-alpha-rename:2297| Int) (|$cond-alpha-rename:2298| Int) (|$cond-alpha-rename:2300| Int) (|$cond-alpha-rename:2301| Int) (|$cond-alpha-rename:2302| Int) (|$cond-alpha-rename:2314| Int) (|$cond-alpha-rename:2315| Int) (|$cond-alpha-rename:2317| Int) (|$cond-alpha-rename:2318| Int) (|$cond-alpha-rename:2319| Int) (|$cond-alpha-rename:2326| Int) (|$cond-alpha-rename:2327| Int) (|$cond-alpha-rename:2328| Int) (|$cond-alpha-rename:2330| Int) (|$cond-alpha-rename:2331| Int) (|$cond-alpha-rename:2332| Int) (|$cond-alpha-rename:2339| Int) (|$cond-alpha-rename:2340| Int) (|$cond-alpha-rename:2344| Int) (|$cond-alpha-rename:2349| Int) (|$cond-alpha-rename:2350| Int) (|$cond-alpha-rename:2351| Int) (|$cond-alpha-rename:2352| Int) (|$cond-alpha-rename:2353| Int) (|$cond-alpha-rename:2354| Int) (|$cond-alpha-rename:2355| Int) (|$cond-alpha-rename:278| Int) (|$cond-alpha-rename:279| Int) (|$cond-alpha-rename:281| Int) (|$cond-alpha-rename:282| Int) (|$cond-alpha-rename:283| Int) (|$cond-alpha-rename:290| Int) (|$cond-alpha-rename:291| Int) (|$cond-alpha-rename:293| Int) (|$cond-alpha-rename:294| Int) (|$cond-alpha-rename:295| Int) (|$cond-alpha-rename:302| Int) (|$cond-alpha-rename:380| Int) (|$cond-alpha-rename:381| Int) (|$cond-alpha-rename:382| Int) (|$cond-alpha-rename:384| Int) (|$cond-alpha-rename:385| Int) (|$cond-alpha-rename:386| Int) )
    (=>
      ( and (> |$cond-alpha-rename:2352| 0) (= (- |$cond-alpha-rename:2352| 1) (- |$cond-alpha-rename:2352| 1)) (= 1 1) (= 1 1) (= 1 1) (= 1 1) (= 1 1) (= 1 1) (= 1 1) (= 0 0) (= (+ (* 0 |$cond-alpha-rename:2352|) 0) (+ (* 0 |$cond-alpha-rename:2352|) 0)) (= (+ (* 0 |$cond-alpha-rename:2352|) 0) (+ (* 0 |$cond-alpha-rename:2352|) 0)) (= (+ (* 0 |$cond-alpha-rename:2352|) 0) (+ (* 0 |$cond-alpha-rename:2352|) 0)) (= (+ (* 0 |$cond-alpha-rename:2352|) 0) (+ (* 0 |$cond-alpha-rename:2352|) 0)) (= (+ (* 0 |$cond-alpha-rename:2352|) 0) (+ (* 0 |$cond-alpha-rename:2352|) 0)) (= (+ (* 0 |$cond-alpha-rename:2352|) 0) (+ (* 0 |$cond-alpha-rename:2352|) 0)) (not (not (= 0 |$cond-alpha-rename:2339|))) (> |$cond-alpha-rename:2352| 0) (> |$cond-alpha-rename:2352| 0) (> |$cond-alpha-rename:2344| 0) (> |$cond-alpha-rename:2352| 0) (> |$cond-alpha-rename:2352| 0) (> |$cond-alpha-rename:2352| 0) (> |$cond-alpha-rename:2352| 0) (> |$cond-alpha-rename:2352| 0) (> |$cond-alpha-rename:2352| 0) (> |$cond-alpha-rename:2352| 0) (> |$cond-alpha-rename:2352| 0) (|f_without_checking_1197$unknown:48| |$cond-alpha-rename:302| |$V-reftype:30| |$cond-alpha-rename:2340| |$cond-alpha-rename:2339| 1 |$cond-alpha-rename:2340| |$cond-alpha-rename:2339| (- |$cond-alpha-rename:2352| 1) |$cond-alpha-rename:2352| 1) (|f_without_checking_1197$unknown:47| |$cond-alpha-rename:380| |$cond-alpha-rename:2340| |$cond-alpha-rename:2339| |$cond-alpha-rename:386| |$cond-alpha-rename:385| |$cond-alpha-rename:384| |$cond-alpha-rename:2352| |$cond-alpha-rename:382| |$cond-alpha-rename:381|) (|f_without_checking_1197$unknown:47| |$cond-alpha-rename:2349| |$cond-alpha-rename:2340| |$cond-alpha-rename:2339| |$cond-alpha-rename:2355| |$cond-alpha-rename:2354| |$cond-alpha-rename:2353| |$cond-alpha-rename:2352| |$cond-alpha-rename:2351| |$cond-alpha-rename:2350|) (|f_without_checking_1197$unknown:47| |$cond-alpha-rename:2326| |$cond-alpha-rename:2340| |$cond-alpha-rename:2339| |$cond-alpha-rename:2332| |$cond-alpha-rename:2331| |$cond-alpha-rename:2330| |$cond-alpha-rename:2352| |$cond-alpha-rename:2328| |$cond-alpha-rename:2327|) (|f_without_checking_1197$unknown:47| |$cond-alpha-rename:2296| |$cond-alpha-rename:2340| |$cond-alpha-rename:2339| |$cond-alpha-rename:2302| |$cond-alpha-rename:2301| |$cond-alpha-rename:2300| |$cond-alpha-rename:2352| |$cond-alpha-rename:2298| |$cond-alpha-rename:2297|) (|f_without_checking_1197$unknown:47| |$cond-alpha-rename:2276| |$cond-alpha-rename:2340| |$cond-alpha-rename:2339| |$cond-alpha-rename:2282| |$cond-alpha-rename:2281| |$cond-alpha-rename:2280| |$cond-alpha-rename:2352| |$cond-alpha-rename:2278| |$cond-alpha-rename:2277|) (|f_without_checking_1197$unknown:47| |$V-reftype:30| |$cond-alpha-rename:2340| |$cond-alpha-rename:2339| |$cond-alpha-rename:295| |$cond-alpha-rename:294| |$cond-alpha-rename:293| |$cond-alpha-rename:2352| |$cond-alpha-rename:291| |$cond-alpha-rename:290|) (|f_without_checking_1197$unknown:47| |$V-reftype:30| |$cond-alpha-rename:2340| |$cond-alpha-rename:2339| |$cond-alpha-rename:283| |$cond-alpha-rename:282| |$cond-alpha-rename:281| |$cond-alpha-rename:2352| |$cond-alpha-rename:279| |$cond-alpha-rename:278|) (|f_without_checking_1197$unknown:47| |$V-reftype:30| |$cond-alpha-rename:2340| |$cond-alpha-rename:2339| |$alpha-29:u_1037| |$alpha-28:s_f_n_1182| |$alpha-27:set_flag_f_1187| |$cond-alpha-rename:2352| |$alpha-25:x_DO_NOT_CARE_1216| |$alpha-24:x_DO_NOT_CARE_1215|) (|f_without_checking_1197$unknown:47| |$V-reftype:30| |$cond-alpha-rename:2340| |$cond-alpha-rename:2339| |$cond-alpha-rename:2319| |$cond-alpha-rename:2318| |$cond-alpha-rename:2317| |$cond-alpha-rename:2352| |$cond-alpha-rename:2315| |$cond-alpha-rename:2314|) (|f_without_checking_1197$unknown:47| |$V-reftype:30| |$cond-alpha-rename:2340| |$cond-alpha-rename:2339| |$cond-alpha-rename:2269| |$cond-alpha-rename:2268| |$cond-alpha-rename:2267| |$cond-alpha-rename:2352| |$cond-alpha-rename:2265| |$cond-alpha-rename:2264|) )
      (|f_without_checking_1197$unknown:48| |$cond-alpha-rename:302| |$V-reftype:30| |$cond-alpha-rename:2340| |$cond-alpha-rename:2339| |$alpha-29:u_1037| |$alpha-28:s_f_n_1182| |$alpha-27:set_flag_f_1187| |$cond-alpha-rename:2352| |$alpha-25:x_DO_NOT_CARE_1216| |$alpha-24:x_DO_NOT_CARE_1215|)
    )
  )
)
(assert
  (forall ( (|$alpha-1:$$tmp::1| Int) (|$knormal:2| Int) )
    (=>
      ( and (|bot$unknown:18| |$knormal:2| 1) )
      (|bot$unknown:18| |$knormal:2| |$alpha-1:$$tmp::1|)
    )
  )
)
(assert
  (forall ( (|$V-reftype:51| Int) (|$alpha-26:n_1036| Int) (|$cond-alpha-rename:1257| Int) (|$cond-alpha-rename:1258| Int) (|$cond-alpha-rename:1259| Int) (|$cond-alpha-rename:1261| Int) (|$cond-alpha-rename:1262| Int) (|$cond-alpha-rename:1263| Int) (|$cond-alpha-rename:1275| Int) (|$cond-alpha-rename:1276| Int) (|$cond-alpha-rename:1278| Int) (|$cond-alpha-rename:1279| Int) (|$cond-alpha-rename:1280| Int) (|$cond-alpha-rename:1287| Int) (|$cond-alpha-rename:1288| Int) (|$cond-alpha-rename:1289| Int) (|$cond-alpha-rename:1290| Int) (|$cond-alpha-rename:1291| Int) (|$cond-alpha-rename:1292| Int) (|$cond-alpha-rename:1293| Int) (|$cond-alpha-rename:1300| Int) (|$cond-alpha-rename:1301| Int) (|$cond-alpha-rename:1306| Int) (|$cond-alpha-rename:1308| Int) )
    (=>
      ( and (|bot$unknown:18| |$cond-alpha-rename:1306| 1) (|f_without_checking_1197$unknown:47| |$V-reftype:51| |$cond-alpha-rename:1301| |$cond-alpha-rename:1300| |$cond-alpha-rename:1280| |$cond-alpha-rename:1279| |$cond-alpha-rename:1278| |$cond-alpha-rename:1290| |$cond-alpha-rename:1276| |$cond-alpha-rename:1275|) (|f_without_checking_1197$unknown:47| |$cond-alpha-rename:1257| |$cond-alpha-rename:1301| |$cond-alpha-rename:1300| |$cond-alpha-rename:1263| |$cond-alpha-rename:1262| |$cond-alpha-rename:1261| |$cond-alpha-rename:1290| |$cond-alpha-rename:1259| |$cond-alpha-rename:1258|) (|f_without_checking_1197$unknown:47| |$cond-alpha-rename:1287| |$cond-alpha-rename:1301| |$cond-alpha-rename:1300| |$cond-alpha-rename:1293| |$cond-alpha-rename:1292| |$cond-alpha-rename:1291| |$cond-alpha-rename:1290| |$cond-alpha-rename:1289| |$cond-alpha-rename:1288|) (|fail$unknown:50| |$cond-alpha-rename:1308| 1) (not (= 0 |$cond-alpha-rename:1300|)) (> |$cond-alpha-rename:1290| 0) (> |$cond-alpha-rename:1290| 0) (> |$cond-alpha-rename:1290| 0) (> |$cond-alpha-rename:1290| 0) (> |$cond-alpha-rename:1290| 0) (= (+ (* 0 |$cond-alpha-rename:1290|) 0) (+ (* 0 |$cond-alpha-rename:1290|) 0)) (= (+ (* 0 |$cond-alpha-rename:1290|) 0) (+ (* 0 |$cond-alpha-rename:1290|) 0)) (= (+ (* 0 |$cond-alpha-rename:1290|) 0) (+ (* 0 |$cond-alpha-rename:1290|) 0)) (= 1 1) (= 1 1) (= 1 1) (> |$alpha-26:n_1036| 0) )
      (|f_without_checking_1197$unknown:47| |$V-reftype:51| |$cond-alpha-rename:1301| |$cond-alpha-rename:1300| 1 |$cond-alpha-rename:1301| |$cond-alpha-rename:1300| (- |$cond-alpha-rename:1290| 1) |$cond-alpha-rename:1290| 1)
    )
  )
)
(assert
  (forall ( (|$V-reftype:51| Int) (|$alpha-26:n_1036| Int) (|$cond-alpha-rename:1311| Int) (|$cond-alpha-rename:1312| Int) (|$cond-alpha-rename:1313| Int) (|$cond-alpha-rename:1315| Int) (|$cond-alpha-rename:1316| Int) (|$cond-alpha-rename:1317| Int) (|$cond-alpha-rename:1329| Int) (|$cond-alpha-rename:1330| Int) (|$cond-alpha-rename:1332| Int) (|$cond-alpha-rename:1333| Int) (|$cond-alpha-rename:1334| Int) (|$cond-alpha-rename:1341| Int) (|$cond-alpha-rename:1342| Int) (|$cond-alpha-rename:1343| Int) (|$cond-alpha-rename:1344| Int) (|$cond-alpha-rename:1345| Int) (|$cond-alpha-rename:1346| Int) (|$cond-alpha-rename:1347| Int) (|$cond-alpha-rename:1354| Int) (|$cond-alpha-rename:1355| Int) )
    (=>
      ( and (|f_without_checking_1197$unknown:47| |$V-reftype:51| |$cond-alpha-rename:1355| |$cond-alpha-rename:1354| |$cond-alpha-rename:1334| |$cond-alpha-rename:1333| |$cond-alpha-rename:1332| |$cond-alpha-rename:1344| |$cond-alpha-rename:1330| |$cond-alpha-rename:1329|) (|f_without_checking_1197$unknown:47| |$cond-alpha-rename:1311| |$cond-alpha-rename:1355| |$cond-alpha-rename:1354| |$cond-alpha-rename:1317| |$cond-alpha-rename:1316| |$cond-alpha-rename:1315| |$cond-alpha-rename:1344| |$cond-alpha-rename:1313| |$cond-alpha-rename:1312|) (|f_without_checking_1197$unknown:47| |$cond-alpha-rename:1341| |$cond-alpha-rename:1355| |$cond-alpha-rename:1354| |$cond-alpha-rename:1347| |$cond-alpha-rename:1346| |$cond-alpha-rename:1345| |$cond-alpha-rename:1344| |$cond-alpha-rename:1343| |$cond-alpha-rename:1342|) (> |$cond-alpha-rename:1344| 0) (> |$cond-alpha-rename:1344| 0) (> |$cond-alpha-rename:1344| 0) (> |$cond-alpha-rename:1344| 0) (> |$cond-alpha-rename:1344| 0) (not (not (= 0 |$cond-alpha-rename:1354|))) (= (+ (* 0 |$cond-alpha-rename:1344|) 0) (+ (* 0 |$cond-alpha-rename:1344|) 0)) (= (+ (* 0 |$cond-alpha-rename:1344|) 0) (+ (* 0 |$cond-alpha-rename:1344|) 0)) (= (+ (* 0 |$cond-alpha-rename:1344|) 0) (+ (* 0 |$cond-alpha-rename:1344|) 0)) (= 1 1) (= 1 1) (= 1 1) (> |$alpha-26:n_1036| 0) )
      (|f_without_checking_1197$unknown:47| |$V-reftype:51| |$cond-alpha-rename:1355| |$cond-alpha-rename:1354| 1 |$cond-alpha-rename:1355| |$cond-alpha-rename:1354| (- |$cond-alpha-rename:1344| 1) |$cond-alpha-rename:1344| 1)
    )
  )
)
(assert
  (forall ( (|$V-reftype:101| Int) (|$V-reftype:97| Int) (|$V-reftype:99| Int) (|$alpha-24:x_DO_NOT_CARE_1215| Int) (|$alpha-25:x_DO_NOT_CARE_1216| Int) (|$alpha-26:n_1036| Int) (|$alpha-27:set_flag_f_1187| Int) (|$alpha-28:s_f_n_1182| Int) (|$alpha-29:u_1037| Int) )
    (=>
      ( and (not (> |$alpha-26:n_1036| 0)) (|f_without_checking_1197$unknown:47| |$V-reftype:101| |$V-reftype:99| |$V-reftype:97| |$alpha-29:u_1037| |$alpha-28:s_f_n_1182| |$alpha-27:set_flag_f_1187| |$alpha-26:n_1036| |$alpha-25:x_DO_NOT_CARE_1216| |$alpha-24:x_DO_NOT_CARE_1215|) )
      (|f_without_checking_1197$unknown:48| |$V-reftype:101| |$V-reftype:101| |$V-reftype:99| |$V-reftype:97| |$alpha-29:u_1037| |$alpha-28:s_f_n_1182| |$alpha-27:set_flag_f_1187| |$alpha-26:n_1036| |$alpha-25:x_DO_NOT_CARE_1216| |$alpha-24:x_DO_NOT_CARE_1215|)
    )
  )
)
(assert
  (not (exists ( (|$cond-alpha-rename:1046| Int) (|$cond-alpha-rename:1047| Int) (|$cond-alpha-rename:1051| Int) (|$cond-alpha-rename:1052| Int) (|$cond-alpha-rename:1053| Int) (|$cond-alpha-rename:1054| Int) (|$cond-alpha-rename:1055| Int) (|$cond-alpha-rename:1056| Int) (|$cond-alpha-rename:1057| Int) )
    ( and (|f_without_checking_1197$unknown:47| |$cond-alpha-rename:1051| |$cond-alpha-rename:1047| |$cond-alpha-rename:1046| |$cond-alpha-rename:1057| |$cond-alpha-rename:1056| |$cond-alpha-rename:1055| |$cond-alpha-rename:1054| |$cond-alpha-rename:1053| |$cond-alpha-rename:1052|) (not (= 0 |$cond-alpha-rename:1046|)) (> |$cond-alpha-rename:1054| 0) (> |$cond-alpha-rename:1054| 0) (= 1 1) (= (+ (* 0 |$cond-alpha-rename:1054|) 0) (+ (* 0 |$cond-alpha-rename:1054|) 0)) )
    )
  )
)
(assert
  (forall ( (|$alpha-34:r| Int) )
    (=>
      ( and true )
      (|f_without_checking_1197$unknown:47| 1 0 0 1 0 0 |$alpha-34:r| 0 0)
    )
  )
)
(check-sat)

(get-model)

(exit)

